1 0 1 1 0 0 1 1 0 0 
0 11 36 29 16 22 11 6 39 22 
11 0 3 31 24 29 15 24 33 27 
36 3 0 21 31 39 40 16 2 36 
29 31 21 0 40 27 14 38 29 7 
16 24 31 40 0 33 35 14 17 32 
22 29 39 27 33 0 18 20 5 36 
11 15 40 14 35 18 0 40 28 15 
6 24 16 38 14 20 40 0 19 6 
39 33 2 29 17 5 28 19 0 14 
22 27 36 7 32 36 15 6 14 0 
2 5
1P 2B 3P 9B 6B 7P 4P 10B 8P 5B = 96